p cnf 90 314
-5 4 0
-5 -4 0
3 5 -6 0
-3 -5 -6 0
3 -5 6 0
-3 5 6 0
-2 6 -7 0
2 -6 -7 0
-2 -6 7 0
2 6 7 0
-8 -1 0
-8 7 0
1 -7 8 0
9 10 -11 0
-9 -10 -11 0
9 -10 11 0
-9 10 11 0
-7 -12 -13 0
7 12 -13 0
-7 12 13 0
7 -12 13 0
14 11 0
14 -13 0
-11 13 -14 0
16 15 0
16 -9 0
-15 9 -16 0
2 -7 -17 0
-2 7 -17 0
2 7 17 0
-2 -7 17 0
-19 -6 0
-19 -18 0
6 18 19 0
-21 -7 0
-21 -20 0
7 20 21 0
-15 21 -22 0
15 -21 -22 0
-15 -21 22 0
15 21 22 0
-22 1 -23 0
22 -1 -23 0
-22 -1 23 0
22 1 23 0
24 -19 0
24 23 0
19 -23 -24 0
25 17 0
25 -24 0
-17 24 -25 0
-26 -16 0
-26 25 0
16 -25 26 0
14 26 -27 0
-14 -26 -27 0
14 -26 27 0
-14 26 27 0
-28 15 0
-28 -6 0
-15 6 28 0
-29 28 0
-29 -7 0
-28 7 29 0
-30 -5 0
-30 9 0
5 -9 30 0
-29 30 -31 0
29 -30 -31 0
-29 -30 31 0
29 30 31 0
32 -31 0
32 -20 0
31 20 -32 0
-33 21 0
-33 -15 0
-21 15 33 0
19 -5 -34 0
-19 5 -34 0
19 5 34 0
-19 -5 34 0
35 -33 0
35 34 0
33 -34 -35 0
-36 -10 0
-36 -12 0
10 12 36 0
-33 -36 -37 0
33 36 -37 0
-33 36 37 0
33 -36 37 0
37 6 -38 0
-37 -6 -38 0
37 -6 38 0
-37 6 38 0
-38 28 -39 0
38 -28 -39 0
-38 -28 39 0
38 28 39 0
40 35 0
40 39 0
-35 -39 -40 0
41 -42 0
-41 -42 0
-42 19 -43 0
42 -19 -43 0
-42 -19 43 0
42 19 43 0
-43 10 -44 0
43 -10 -44 0
-43 -10 44 0
43 10 44 0
-40 44 -45 0
40 -44 -45 0
-40 -44 45 0
40 44 45 0
-32 -45 -46 0
32 45 -46 0
-32 45 46 0
32 -45 46 0
-48 -47 0
-48 -19 0
47 19 48 0
-49 -46 0
-49 -48 0
46 48 49 0
-50 -27 0
-50 -49 0
27 49 50 0
8 50 -51 0
-8 -50 -51 0
8 -50 51 0
-8 50 51 0
23 47 -52 0
-23 -47 -52 0
23 -47 52 0
-23 47 52 0
-6 -42 -53 0
6 42 -53 0
-6 42 53 0
6 -42 53 0
54 -52 0
54 53 0
52 -53 -54 0
-41 19 -55 0
41 -19 -55 0
-41 -19 55 0
41 19 55 0
-56 -54 0
-56 55 0
54 -55 56 0
-57 -51 0
-57 -56 0
51 56 57 0
-58 29 0
-58 -4 0
-29 4 58 0
-58 9 -59 0
58 -9 -59 0
-58 -9 59 0
58 9 59 0
59 2 -60 0
-59 -2 -60 0
59 -2 60 0
-59 2 60 0
-29 21 -61 0
29 -21 -61 0
-29 -21 61 0
29 21 61 0
-61 23 -62 0
61 -23 -62 0
-61 -23 62 0
61 23 62 0
63 60 0
63 62 0
-60 -62 -63 0
65 -47 0
65 64 0
47 -64 -65 0
-31 -6 -66 0
31 6 -66 0
-31 6 66 0
31 -6 66 0
-65 66 -67 0
65 -66 -67 0
-65 -66 67 0
65 66 67 0
-63 -67 -68 0
63 67 -68 0
-63 67 68 0
63 -67 68 0
70 33 0
70 69 0
-33 -69 -70 0
-4 -15 -71 0
4 15 -71 0
-4 15 71 0
4 -15 71 0
-72 -71 0
-72 9 0
71 -9 72 0
70 72 -73 0
-70 -72 -73 0
70 -72 73 0
-70 72 73 0
-47 -74 0
47 -74 0
33 74 -75 0
-33 -74 -75 0
33 -74 75 0
-33 74 75 0
76 73 0
76 -75 0
-73 75 -76 0
-68 -76 -77 0
68 76 -77 0
-68 76 77 0
68 -76 77 0
57 -77 -78 0
-57 77 -78 0
57 77 78 0
-57 -77 78 0
-30 -58 -79 0
30 58 -79 0
-30 58 79 0
30 -58 79 0
80 -78 0
80 -79 0
78 79 -80 0
81 10 0
81 1 0
-10 -1 -81 0
82 22 0
82 9 0
-22 -9 -82 0
-4 69 -83 0
4 -69 -83 0
-4 -69 83 0
4 69 83 0
-82 83 -84 0
82 -83 -84 0
-82 -83 84 0
82 83 84 0
85 -81 0
85 -84 0
81 84 -85 0
86 -47 0
86 -34 0
47 34 -86 0
87 12 0
87 6 0
-12 -6 -87 0
88 -86 0
88 87 0
86 -87 -88 0
89 -85 0
89 88 0
85 -88 -89 0
90 -80 0
90 -89 0
80 89 -90 0
-72 -59 35 74 0
-9 70 -39 4 0
-46 13 -2 -49 17 0
-43 39 66 -14 11 0
43 -80 82 -74 -77 0
7 -40 0
47 43 -12 -9 0
1 -88 -17 -45 0
-87 6 -10 40 0
19 73 47 59 50 38 0
1 78 0
39 49 0
20 -28 -14 -56 0
59 39 -60 1 69 0
-8 -66 -82 74 -52 65 0
-90 -49 0
66 -14 1 -16 0
-12 -66 -21 -18 -76 36 0
-82 62 0
-41 14 -45 -53 21 -39 0
70 34 14 0
44 -77 -19 82 16 0
-65 -78 27 -16 0
27 88 12 -71 48 -9 0
-75 31 23 -49 12 47 0
57 -7 24 0
56 20 -67 71 27 37 0
-21 29 -20 69 -87 -10 0
31 -14 0
-73 79 29 -45 -71 0
-50 49 0
47 -14 0
31 60 -88 0
-63 45 0
-35 -76 89 -64 0
52 -79 13 -18 -72 -83 0
55 -3 26 0
46 -27 -40 78 -66 0
-25 -33 -45 0
-12 85 0
57 -31 0
52 89 82 -15 68 62 0
-41 -34 -1 -17 18 -57 0
36 14 24 90 -63 72 0
7 75 -12 -28 0
18 -67 -36 63 0
37 11 -9 57 0
-16 -43 0
77 -26 0
62 45 13 -7 0
70 78 -13 0
48 56 8 83 0
90 0
